
;this file is automatically generated: Mon Nov 02 10:36:09 CST 2020

;declarations generated

(declare-fun oclExcludes ( Int Int) Bool)
(declare-fun type_0e537306_cb74_41ac_82fd_cb64d09996e1_Class20 ( Int) Bool)
(declare-fun type_0e537306_cb74_41ac_82fd_cb64d09996e1_Class21 ( Int) Bool)
(declare-fun type_0e537306_cb74_41ac_82fd_cb64d09996e1_Class22 ( Int) Bool)
(declare-fun type_0e537306_cb74_41ac_82fd_cb64d09996e1_Class23 ( Int) Bool)
(declare-fun type_0e537306_cb74_41ac_82fd_cb64d09996e1_Class24 ( Int) Bool)
(declare-fun type_0e537306_cb74_41ac_82fd_cb64d09996e1_Class25 ( Int) Bool)
(declare-fun type_0e537306_cb74_41ac_82fd_cb64d09996e1_Class26 ( Int) Bool)
(declare-fun type_0e537306_cb74_41ac_82fd_cb64d09996e1_Class27 ( Int) Bool)
(declare-fun type_0e537306_cb74_41ac_82fd_cb64d09996e1_Class28 ( Int) Bool)
(declare-fun type_0e537306_cb74_41ac_82fd_cb64d09996e1_Class29 ( Int) Bool)
(declare-fun Cardinality ( Int) Int)
(declare-fun type_0e537306_cb74_41ac_82fd_cb64d09996e1_Class10 ( Int) Bool)
(declare-fun type_0e537306_cb74_41ac_82fd_cb64d09996e1_Class11 ( Int) Bool)
(declare-fun type_0e537306_cb74_41ac_82fd_cb64d09996e1_Class12 ( Int) Bool)
(declare-fun type_0e537306_cb74_41ac_82fd_cb64d09996e1_Class13 ( Int) Bool)
(declare-fun type_0e537306_cb74_41ac_82fd_cb64d09996e1_Class14 ( Int) Bool)
(declare-fun type_0e537306_cb74_41ac_82fd_cb64d09996e1_Class15 ( Int) Bool)
(declare-fun type_0e537306_cb74_41ac_82fd_cb64d09996e1_Class16 ( Int) Bool)
(declare-fun type_0e537306_cb74_41ac_82fd_cb64d09996e1_Class17 ( Int) Bool)
(declare-fun type_0e537306_cb74_41ac_82fd_cb64d09996e1_Class18 ( Int) Bool)
(declare-fun type_0e537306_cb74_41ac_82fd_cb64d09996e1_Class19 ( Int) Bool)
(declare-fun type_0e537306_cb74_41ac_82fd_cb64d09996e1_Class8 ( Int) Bool)
(declare-fun type_0e537306_cb74_41ac_82fd_cb64d09996e1_Class9 ( Int) Bool)
(declare-fun type_0e537306_cb74_41ac_82fd_cb64d09996e1_Class6 ( Int) Bool)
(declare-fun type_0e537306_cb74_41ac_82fd_cb64d09996e1_Class7 ( Int) Bool)
(declare-fun type_0e537306_cb74_41ac_82fd_cb64d09996e1_Class4 ( Int) Bool)
(declare-fun type_0e537306_cb74_41ac_82fd_cb64d09996e1_Class5 ( Int) Bool)
(declare-fun type_0e537306_cb74_41ac_82fd_cb64d09996e1_Class2 ( Int) Bool)
(declare-fun type_0e537306_cb74_41ac_82fd_cb64d09996e1_Class3 ( Int) Bool)
(declare-fun type_0e537306_cb74_41ac_82fd_cb64d09996e1_Class0 ( Int) Bool)
(declare-fun type_0e537306_cb74_41ac_82fd_cb64d09996e1_Class1 ( Int) Bool)
(declare-fun obj_d4985bae_213f_46cf_9862_a5d98d48b1fe ( Int) Int)
(declare-fun class46_Class46BoolAttr0 ( Int) Bool)
(declare-fun class46_Class46BoolAttr1 ( Int) Bool)
(declare-fun oclSelect ( Int Bool) Int)
(declare-fun type_0e537306_cb74_41ac_82fd_cb64d09996e1_Class50 ( Int) Bool)
(declare-fun type_0e537306_cb74_41ac_82fd_cb64d09996e1_Class51 ( Int) Bool)
(declare-fun type_0e537306_cb74_41ac_82fd_cb64d09996e1_Class52 ( Int) Bool)
(declare-fun type_0e537306_cb74_41ac_82fd_cb64d09996e1_Class53 ( Int) Bool)
(declare-fun Enum0 ( Int) Int)
(declare-fun type_0e537306_cb74_41ac_82fd_cb64d09996e1_Class54 ( Int) Bool)
(declare-fun Enum1 ( Int) Int)
(declare-fun type_0e537306_cb74_41ac_82fd_cb64d09996e1_Class55 ( Int) Bool)
(declare-fun Enum2 ( Int) Int)
(declare-fun type_0e537306_cb74_41ac_82fd_cb64d09996e1_Class40 ( Int) Bool)
(declare-fun type_0e537306_cb74_41ac_82fd_cb64d09996e1_Class41 ( Int) Bool)
(declare-fun type_0e537306_cb74_41ac_82fd_cb64d09996e1_Class42 ( Int) Bool)
(declare-fun type_0e537306_cb74_41ac_82fd_cb64d09996e1_Class43 ( Int) Bool)
(declare-fun type_0e537306_cb74_41ac_82fd_cb64d09996e1_Class44 ( Int) Bool)
(declare-fun type_0e537306_cb74_41ac_82fd_cb64d09996e1_Class45 ( Int) Bool)
(declare-fun type_0e537306_cb74_41ac_82fd_cb64d09996e1_Class46 ( Int) Bool)
(declare-fun type_0e537306_cb74_41ac_82fd_cb64d09996e1_Class47 ( Int) Bool)
(declare-fun type_0e537306_cb74_41ac_82fd_cb64d09996e1_Class48 ( Int) Bool)
(declare-fun type_0e537306_cb74_41ac_82fd_cb64d09996e1_Class49 ( Int) Bool)
(declare-fun container_ ( Int) Int)
(declare-fun type_0e537306_cb74_41ac_82fd_cb64d09996e1_Class30 ( Int) Bool)
(declare-fun type_0e537306_cb74_41ac_82fd_cb64d09996e1_Class31 ( Int) Bool)
(declare-fun type_0e537306_cb74_41ac_82fd_cb64d09996e1_Class32 ( Int) Bool)
(declare-fun type_0e537306_cb74_41ac_82fd_cb64d09996e1_Class33 ( Int) Bool)
(declare-fun type_0e537306_cb74_41ac_82fd_cb64d09996e1_Class34 ( Int) Bool)
(declare-fun type_0e537306_cb74_41ac_82fd_cb64d09996e1_Class35 ( Int) Bool)
(declare-fun type_0e537306_cb74_41ac_82fd_cb64d09996e1_Class36 ( Int) Bool)
(declare-fun type_0e537306_cb74_41ac_82fd_cb64d09996e1_Class37 ( Int) Bool)
(declare-fun type_0e537306_cb74_41ac_82fd_cb64d09996e1_Class38 ( Int) Bool)
(declare-fun type_0e537306_cb74_41ac_82fd_cb64d09996e1_Class39 ( Int) Bool)
(declare-fun oclIncludes ( Int Int) Bool)
(declare-fun ObjAt ( Int Int) Int)

;formula(s) generated
(assert (! (exists ((c1 Int)(c2 Int)) (and (and (and (and ( type_0e537306_cb74_41ac_82fd_cb64d09996e1_Class46 c1 )  ( type_0e537306_cb74_41ac_82fd_cb64d09996e1_Class39 c1 ) ) ( type_0e537306_cb74_41ac_82fd_cb64d09996e1_Class5 c1 ) ) (and (and ( type_0e537306_cb74_41ac_82fd_cb64d09996e1_Class46 c2 )  ( type_0e537306_cb74_41ac_82fd_cb64d09996e1_Class39 c2 ) ) ( type_0e537306_cb74_41ac_82fd_cb64d09996e1_Class5 c2 ) )) (or ( class46_Class46BoolAttr0 ( obj_d4985bae_213f_46cf_9862_a5d98d48b1fe c1 )  )  ( class46_Class46BoolAttr1 ( obj_d4985bae_213f_46cf_9862_a5d98d48b1fe c2 )  ) ))):named l0))
(assert (! (exists ((o Int)) ( type_0e537306_cb74_41ac_82fd_cb64d09996e1_Class0 ( obj_d4985bae_213f_46cf_9862_a5d98d48b1fe o )  ) ):named c0))
(assert (! (exists ((o Int)) (and (and (and (and (and ( type_0e537306_cb74_41ac_82fd_cb64d09996e1_Class1 ( obj_d4985bae_213f_46cf_9862_a5d98d48b1fe o )  )  ( type_0e537306_cb74_41ac_82fd_cb64d09996e1_Class45 ( obj_d4985bae_213f_46cf_9862_a5d98d48b1fe o )  ) ) ( type_0e537306_cb74_41ac_82fd_cb64d09996e1_Class12 ( obj_d4985bae_213f_46cf_9862_a5d98d48b1fe o )  ) ) ( type_0e537306_cb74_41ac_82fd_cb64d09996e1_Class33 ( obj_d4985bae_213f_46cf_9862_a5d98d48b1fe o )  ) ) ( type_0e537306_cb74_41ac_82fd_cb64d09996e1_Class22 ( obj_d4985bae_213f_46cf_9862_a5d98d48b1fe o )  ) ) ( type_0e537306_cb74_41ac_82fd_cb64d09996e1_Class39 ( obj_d4985bae_213f_46cf_9862_a5d98d48b1fe o )  ) )):named c1))
(assert (! (exists ((o Int)) (and (and (and (and (and (and (and (and (and ( type_0e537306_cb74_41ac_82fd_cb64d09996e1_Class10 ( obj_d4985bae_213f_46cf_9862_a5d98d48b1fe o )  )  ( type_0e537306_cb74_41ac_82fd_cb64d09996e1_Class45 ( obj_d4985bae_213f_46cf_9862_a5d98d48b1fe o )  ) ) ( type_0e537306_cb74_41ac_82fd_cb64d09996e1_Class12 ( obj_d4985bae_213f_46cf_9862_a5d98d48b1fe o )  ) ) ( type_0e537306_cb74_41ac_82fd_cb64d09996e1_Class55 ( obj_d4985bae_213f_46cf_9862_a5d98d48b1fe o )  ) ) ( type_0e537306_cb74_41ac_82fd_cb64d09996e1_Class33 ( obj_d4985bae_213f_46cf_9862_a5d98d48b1fe o )  ) ) ( type_0e537306_cb74_41ac_82fd_cb64d09996e1_Class22 ( obj_d4985bae_213f_46cf_9862_a5d98d48b1fe o )  ) ) ( type_0e537306_cb74_41ac_82fd_cb64d09996e1_Class29 ( obj_d4985bae_213f_46cf_9862_a5d98d48b1fe o )  ) ) ( type_0e537306_cb74_41ac_82fd_cb64d09996e1_Class39 ( obj_d4985bae_213f_46cf_9862_a5d98d48b1fe o )  ) ) ( type_0e537306_cb74_41ac_82fd_cb64d09996e1_Class50 ( obj_d4985bae_213f_46cf_9862_a5d98d48b1fe o )  ) ) ( type_0e537306_cb74_41ac_82fd_cb64d09996e1_Class41 ( obj_d4985bae_213f_46cf_9862_a5d98d48b1fe o )  ) )):named c2))
(assert (! (exists ((o Int)) ( type_0e537306_cb74_41ac_82fd_cb64d09996e1_Class11 ( obj_d4985bae_213f_46cf_9862_a5d98d48b1fe o )  ) ):named c3))
(assert (! (exists ((o Int)) (and (and (and ( type_0e537306_cb74_41ac_82fd_cb64d09996e1_Class12 ( obj_d4985bae_213f_46cf_9862_a5d98d48b1fe o )  )  ( type_0e537306_cb74_41ac_82fd_cb64d09996e1_Class33 ( obj_d4985bae_213f_46cf_9862_a5d98d48b1fe o )  ) ) ( type_0e537306_cb74_41ac_82fd_cb64d09996e1_Class22 ( obj_d4985bae_213f_46cf_9862_a5d98d48b1fe o )  ) ) ( type_0e537306_cb74_41ac_82fd_cb64d09996e1_Class39 ( obj_d4985bae_213f_46cf_9862_a5d98d48b1fe o )  ) )):named c4))
(assert (! (exists ((o Int)) (and (and (and (and (and (and (and (and (and ( type_0e537306_cb74_41ac_82fd_cb64d09996e1_Class13 ( obj_d4985bae_213f_46cf_9862_a5d98d48b1fe o )  )  ( type_0e537306_cb74_41ac_82fd_cb64d09996e1_Class45 ( obj_d4985bae_213f_46cf_9862_a5d98d48b1fe o )  ) ) ( type_0e537306_cb74_41ac_82fd_cb64d09996e1_Class12 ( obj_d4985bae_213f_46cf_9862_a5d98d48b1fe o )  ) ) ( type_0e537306_cb74_41ac_82fd_cb64d09996e1_Class55 ( obj_d4985bae_213f_46cf_9862_a5d98d48b1fe o )  ) ) ( type_0e537306_cb74_41ac_82fd_cb64d09996e1_Class33 ( obj_d4985bae_213f_46cf_9862_a5d98d48b1fe o )  ) ) ( type_0e537306_cb74_41ac_82fd_cb64d09996e1_Class22 ( obj_d4985bae_213f_46cf_9862_a5d98d48b1fe o )  ) ) ( type_0e537306_cb74_41ac_82fd_cb64d09996e1_Class29 ( obj_d4985bae_213f_46cf_9862_a5d98d48b1fe o )  ) ) ( type_0e537306_cb74_41ac_82fd_cb64d09996e1_Class39 ( obj_d4985bae_213f_46cf_9862_a5d98d48b1fe o )  ) ) ( type_0e537306_cb74_41ac_82fd_cb64d09996e1_Class50 ( obj_d4985bae_213f_46cf_9862_a5d98d48b1fe o )  ) ) ( type_0e537306_cb74_41ac_82fd_cb64d09996e1_Class41 ( obj_d4985bae_213f_46cf_9862_a5d98d48b1fe o )  ) )):named c5))
(assert (! (exists ((o Int)) (and (and (and (and (and (and (and (and (and ( type_0e537306_cb74_41ac_82fd_cb64d09996e1_Class14 ( obj_d4985bae_213f_46cf_9862_a5d98d48b1fe o )  )  ( type_0e537306_cb74_41ac_82fd_cb64d09996e1_Class45 ( obj_d4985bae_213f_46cf_9862_a5d98d48b1fe o )  ) ) ( type_0e537306_cb74_41ac_82fd_cb64d09996e1_Class12 ( obj_d4985bae_213f_46cf_9862_a5d98d48b1fe o )  ) ) ( type_0e537306_cb74_41ac_82fd_cb64d09996e1_Class55 ( obj_d4985bae_213f_46cf_9862_a5d98d48b1fe o )  ) ) ( type_0e537306_cb74_41ac_82fd_cb64d09996e1_Class33 ( obj_d4985bae_213f_46cf_9862_a5d98d48b1fe o )  ) ) ( type_0e537306_cb74_41ac_82fd_cb64d09996e1_Class22 ( obj_d4985bae_213f_46cf_9862_a5d98d48b1fe o )  ) ) ( type_0e537306_cb74_41ac_82fd_cb64d09996e1_Class29 ( obj_d4985bae_213f_46cf_9862_a5d98d48b1fe o )  ) ) ( type_0e537306_cb74_41ac_82fd_cb64d09996e1_Class39 ( obj_d4985bae_213f_46cf_9862_a5d98d48b1fe o )  ) ) ( type_0e537306_cb74_41ac_82fd_cb64d09996e1_Class50 ( obj_d4985bae_213f_46cf_9862_a5d98d48b1fe o )  ) ) ( type_0e537306_cb74_41ac_82fd_cb64d09996e1_Class41 ( obj_d4985bae_213f_46cf_9862_a5d98d48b1fe o )  ) )):named c6))
(assert (! (exists ((o Int)) ( type_0e537306_cb74_41ac_82fd_cb64d09996e1_Class15 ( obj_d4985bae_213f_46cf_9862_a5d98d48b1fe o )  ) ):named c7))
(assert (! (exists ((o Int)) (and (and (and (and (and ( type_0e537306_cb74_41ac_82fd_cb64d09996e1_Class16 ( obj_d4985bae_213f_46cf_9862_a5d98d48b1fe o )  )  ( type_0e537306_cb74_41ac_82fd_cb64d09996e1_Class45 ( obj_d4985bae_213f_46cf_9862_a5d98d48b1fe o )  ) ) ( type_0e537306_cb74_41ac_82fd_cb64d09996e1_Class12 ( obj_d4985bae_213f_46cf_9862_a5d98d48b1fe o )  ) ) ( type_0e537306_cb74_41ac_82fd_cb64d09996e1_Class33 ( obj_d4985bae_213f_46cf_9862_a5d98d48b1fe o )  ) ) ( type_0e537306_cb74_41ac_82fd_cb64d09996e1_Class22 ( obj_d4985bae_213f_46cf_9862_a5d98d48b1fe o )  ) ) ( type_0e537306_cb74_41ac_82fd_cb64d09996e1_Class39 ( obj_d4985bae_213f_46cf_9862_a5d98d48b1fe o )  ) )):named c8))
(assert (! (exists ((o Int)) ( type_0e537306_cb74_41ac_82fd_cb64d09996e1_Class17 ( obj_d4985bae_213f_46cf_9862_a5d98d48b1fe o )  ) ):named c9))
(assert (! (exists ((o Int)) (and (and (and ( type_0e537306_cb74_41ac_82fd_cb64d09996e1_Class18 ( obj_d4985bae_213f_46cf_9862_a5d98d48b1fe o )  )  ( type_0e537306_cb74_41ac_82fd_cb64d09996e1_Class25 ( obj_d4985bae_213f_46cf_9862_a5d98d48b1fe o )  ) ) ( type_0e537306_cb74_41ac_82fd_cb64d09996e1_Class24 ( obj_d4985bae_213f_46cf_9862_a5d98d48b1fe o )  ) ) ( type_0e537306_cb74_41ac_82fd_cb64d09996e1_Class39 ( obj_d4985bae_213f_46cf_9862_a5d98d48b1fe o )  ) )):named c10))
(assert (! (exists ((o Int)) (and (and (and (and (and (and (and (and (and ( type_0e537306_cb74_41ac_82fd_cb64d09996e1_Class19 ( obj_d4985bae_213f_46cf_9862_a5d98d48b1fe o )  )  ( type_0e537306_cb74_41ac_82fd_cb64d09996e1_Class45 ( obj_d4985bae_213f_46cf_9862_a5d98d48b1fe o )  ) ) ( type_0e537306_cb74_41ac_82fd_cb64d09996e1_Class12 ( obj_d4985bae_213f_46cf_9862_a5d98d48b1fe o )  ) ) ( type_0e537306_cb74_41ac_82fd_cb64d09996e1_Class55 ( obj_d4985bae_213f_46cf_9862_a5d98d48b1fe o )  ) ) ( type_0e537306_cb74_41ac_82fd_cb64d09996e1_Class33 ( obj_d4985bae_213f_46cf_9862_a5d98d48b1fe o )  ) ) ( type_0e537306_cb74_41ac_82fd_cb64d09996e1_Class22 ( obj_d4985bae_213f_46cf_9862_a5d98d48b1fe o )  ) ) ( type_0e537306_cb74_41ac_82fd_cb64d09996e1_Class29 ( obj_d4985bae_213f_46cf_9862_a5d98d48b1fe o )  ) ) ( type_0e537306_cb74_41ac_82fd_cb64d09996e1_Class39 ( obj_d4985bae_213f_46cf_9862_a5d98d48b1fe o )  ) ) ( type_0e537306_cb74_41ac_82fd_cb64d09996e1_Class50 ( obj_d4985bae_213f_46cf_9862_a5d98d48b1fe o )  ) ) ( type_0e537306_cb74_41ac_82fd_cb64d09996e1_Class41 ( obj_d4985bae_213f_46cf_9862_a5d98d48b1fe o )  ) )):named c11))
(assert (! (exists ((o Int)) ( type_0e537306_cb74_41ac_82fd_cb64d09996e1_Class2 ( obj_d4985bae_213f_46cf_9862_a5d98d48b1fe o )  ) ):named c12))
(assert (! (exists ((o Int)) ( type_0e537306_cb74_41ac_82fd_cb64d09996e1_Class20 ( obj_d4985bae_213f_46cf_9862_a5d98d48b1fe o )  ) ):named c13))
(assert (! (exists ((o Int)) (and (and (and (and (and (and (and (and (and ( type_0e537306_cb74_41ac_82fd_cb64d09996e1_Class21 ( obj_d4985bae_213f_46cf_9862_a5d98d48b1fe o )  )  ( type_0e537306_cb74_41ac_82fd_cb64d09996e1_Class45 ( obj_d4985bae_213f_46cf_9862_a5d98d48b1fe o )  ) ) ( type_0e537306_cb74_41ac_82fd_cb64d09996e1_Class12 ( obj_d4985bae_213f_46cf_9862_a5d98d48b1fe o )  ) ) ( type_0e537306_cb74_41ac_82fd_cb64d09996e1_Class33 ( obj_d4985bae_213f_46cf_9862_a5d98d48b1fe o )  ) ) ( type_0e537306_cb74_41ac_82fd_cb64d09996e1_Class22 ( obj_d4985bae_213f_46cf_9862_a5d98d48b1fe o )  ) ) ( type_0e537306_cb74_41ac_82fd_cb64d09996e1_Class16 ( obj_d4985bae_213f_46cf_9862_a5d98d48b1fe o )  ) ) ( type_0e537306_cb74_41ac_82fd_cb64d09996e1_Class29 ( obj_d4985bae_213f_46cf_9862_a5d98d48b1fe o )  ) ) ( type_0e537306_cb74_41ac_82fd_cb64d09996e1_Class39 ( obj_d4985bae_213f_46cf_9862_a5d98d48b1fe o )  ) ) ( type_0e537306_cb74_41ac_82fd_cb64d09996e1_Class41 ( obj_d4985bae_213f_46cf_9862_a5d98d48b1fe o )  ) ) ( type_0e537306_cb74_41ac_82fd_cb64d09996e1_Class51 ( obj_d4985bae_213f_46cf_9862_a5d98d48b1fe o )  ) )):named c14))
(assert (! (exists ((o Int)) (and ( type_0e537306_cb74_41ac_82fd_cb64d09996e1_Class22 ( obj_d4985bae_213f_46cf_9862_a5d98d48b1fe o )  )  ( type_0e537306_cb74_41ac_82fd_cb64d09996e1_Class39 ( obj_d4985bae_213f_46cf_9862_a5d98d48b1fe o )  ) )):named c15))
(assert (! (exists ((o Int)) (and (and (and (and ( type_0e537306_cb74_41ac_82fd_cb64d09996e1_Class23 ( obj_d4985bae_213f_46cf_9862_a5d98d48b1fe o )  )  ( type_0e537306_cb74_41ac_82fd_cb64d09996e1_Class25 ( obj_d4985bae_213f_46cf_9862_a5d98d48b1fe o )  ) ) ( type_0e537306_cb74_41ac_82fd_cb64d09996e1_Class24 ( obj_d4985bae_213f_46cf_9862_a5d98d48b1fe o )  ) ) ( type_0e537306_cb74_41ac_82fd_cb64d09996e1_Class39 ( obj_d4985bae_213f_46cf_9862_a5d98d48b1fe o )  ) ) ( type_0e537306_cb74_41ac_82fd_cb64d09996e1_Class5 ( obj_d4985bae_213f_46cf_9862_a5d98d48b1fe o )  ) )):named c16))
(assert (! (exists ((o Int)) (and (and ( type_0e537306_cb74_41ac_82fd_cb64d09996e1_Class24 ( obj_d4985bae_213f_46cf_9862_a5d98d48b1fe o )  )  ( type_0e537306_cb74_41ac_82fd_cb64d09996e1_Class25 ( obj_d4985bae_213f_46cf_9862_a5d98d48b1fe o )  ) ) ( type_0e537306_cb74_41ac_82fd_cb64d09996e1_Class39 ( obj_d4985bae_213f_46cf_9862_a5d98d48b1fe o )  ) )):named c17))
(assert (! (exists ((o Int)) (and ( type_0e537306_cb74_41ac_82fd_cb64d09996e1_Class25 ( obj_d4985bae_213f_46cf_9862_a5d98d48b1fe o )  )  ( type_0e537306_cb74_41ac_82fd_cb64d09996e1_Class39 ( obj_d4985bae_213f_46cf_9862_a5d98d48b1fe o )  ) )):named c18))
(assert (! (exists ((o Int)) ( type_0e537306_cb74_41ac_82fd_cb64d09996e1_Class26 ( obj_d4985bae_213f_46cf_9862_a5d98d48b1fe o )  ) ):named c19))
(assert (! (exists ((o Int)) ( type_0e537306_cb74_41ac_82fd_cb64d09996e1_Class27 ( obj_d4985bae_213f_46cf_9862_a5d98d48b1fe o )  ) ):named c20))
(assert (! (exists ((o Int)) (and (and (and (and (and (and (and ( type_0e537306_cb74_41ac_82fd_cb64d09996e1_Class28 ( obj_d4985bae_213f_46cf_9862_a5d98d48b1fe o )  )  ( type_0e537306_cb74_41ac_82fd_cb64d09996e1_Class45 ( obj_d4985bae_213f_46cf_9862_a5d98d48b1fe o )  ) ) ( type_0e537306_cb74_41ac_82fd_cb64d09996e1_Class12 ( obj_d4985bae_213f_46cf_9862_a5d98d48b1fe o )  ) ) ( type_0e537306_cb74_41ac_82fd_cb64d09996e1_Class33 ( obj_d4985bae_213f_46cf_9862_a5d98d48b1fe o )  ) ) ( type_0e537306_cb74_41ac_82fd_cb64d09996e1_Class22 ( obj_d4985bae_213f_46cf_9862_a5d98d48b1fe o )  ) ) ( type_0e537306_cb74_41ac_82fd_cb64d09996e1_Class29 ( obj_d4985bae_213f_46cf_9862_a5d98d48b1fe o )  ) ) ( type_0e537306_cb74_41ac_82fd_cb64d09996e1_Class39 ( obj_d4985bae_213f_46cf_9862_a5d98d48b1fe o )  ) ) ( type_0e537306_cb74_41ac_82fd_cb64d09996e1_Class41 ( obj_d4985bae_213f_46cf_9862_a5d98d48b1fe o )  ) )):named c21))
(assert (! (exists ((o Int)) (and (and (and (and (and (and ( type_0e537306_cb74_41ac_82fd_cb64d09996e1_Class29 ( obj_d4985bae_213f_46cf_9862_a5d98d48b1fe o )  )  ( type_0e537306_cb74_41ac_82fd_cb64d09996e1_Class45 ( obj_d4985bae_213f_46cf_9862_a5d98d48b1fe o )  ) ) ( type_0e537306_cb74_41ac_82fd_cb64d09996e1_Class12 ( obj_d4985bae_213f_46cf_9862_a5d98d48b1fe o )  ) ) ( type_0e537306_cb74_41ac_82fd_cb64d09996e1_Class33 ( obj_d4985bae_213f_46cf_9862_a5d98d48b1fe o )  ) ) ( type_0e537306_cb74_41ac_82fd_cb64d09996e1_Class22 ( obj_d4985bae_213f_46cf_9862_a5d98d48b1fe o )  ) ) ( type_0e537306_cb74_41ac_82fd_cb64d09996e1_Class39 ( obj_d4985bae_213f_46cf_9862_a5d98d48b1fe o )  ) ) ( type_0e537306_cb74_41ac_82fd_cb64d09996e1_Class41 ( obj_d4985bae_213f_46cf_9862_a5d98d48b1fe o )  ) )):named c22))
(assert (! (exists ((o Int)) (and (and (and ( type_0e537306_cb74_41ac_82fd_cb64d09996e1_Class3 ( obj_d4985bae_213f_46cf_9862_a5d98d48b1fe o )  )  ( type_0e537306_cb74_41ac_82fd_cb64d09996e1_Class25 ( obj_d4985bae_213f_46cf_9862_a5d98d48b1fe o )  ) ) ( type_0e537306_cb74_41ac_82fd_cb64d09996e1_Class24 ( obj_d4985bae_213f_46cf_9862_a5d98d48b1fe o )  ) ) ( type_0e537306_cb74_41ac_82fd_cb64d09996e1_Class39 ( obj_d4985bae_213f_46cf_9862_a5d98d48b1fe o )  ) )):named c23))
(assert (! (exists ((o Int)) (and ( type_0e537306_cb74_41ac_82fd_cb64d09996e1_Class30 ( obj_d4985bae_213f_46cf_9862_a5d98d48b1fe o )  )  ( type_0e537306_cb74_41ac_82fd_cb64d09996e1_Class39 ( obj_d4985bae_213f_46cf_9862_a5d98d48b1fe o )  ) )):named c24))
(assert (! (exists ((o Int)) (and (and (and (and (and ( type_0e537306_cb74_41ac_82fd_cb64d09996e1_Class31 ( obj_d4985bae_213f_46cf_9862_a5d98d48b1fe o )  )  ( type_0e537306_cb74_41ac_82fd_cb64d09996e1_Class45 ( obj_d4985bae_213f_46cf_9862_a5d98d48b1fe o )  ) ) ( type_0e537306_cb74_41ac_82fd_cb64d09996e1_Class12 ( obj_d4985bae_213f_46cf_9862_a5d98d48b1fe o )  ) ) ( type_0e537306_cb74_41ac_82fd_cb64d09996e1_Class33 ( obj_d4985bae_213f_46cf_9862_a5d98d48b1fe o )  ) ) ( type_0e537306_cb74_41ac_82fd_cb64d09996e1_Class22 ( obj_d4985bae_213f_46cf_9862_a5d98d48b1fe o )  ) ) ( type_0e537306_cb74_41ac_82fd_cb64d09996e1_Class39 ( obj_d4985bae_213f_46cf_9862_a5d98d48b1fe o )  ) )):named c25))
(assert (! (exists ((o Int)) ( type_0e537306_cb74_41ac_82fd_cb64d09996e1_Class32 ( obj_d4985bae_213f_46cf_9862_a5d98d48b1fe o )  ) ):named c26))
(assert (! (exists ((o Int)) (and (and ( type_0e537306_cb74_41ac_82fd_cb64d09996e1_Class33 ( obj_d4985bae_213f_46cf_9862_a5d98d48b1fe o )  )  ( type_0e537306_cb74_41ac_82fd_cb64d09996e1_Class22 ( obj_d4985bae_213f_46cf_9862_a5d98d48b1fe o )  ) ) ( type_0e537306_cb74_41ac_82fd_cb64d09996e1_Class39 ( obj_d4985bae_213f_46cf_9862_a5d98d48b1fe o )  ) )):named c27))
(assert (! (exists ((o Int)) (and (and (and ( type_0e537306_cb74_41ac_82fd_cb64d09996e1_Class34 ( obj_d4985bae_213f_46cf_9862_a5d98d48b1fe o )  )  ( type_0e537306_cb74_41ac_82fd_cb64d09996e1_Class25 ( obj_d4985bae_213f_46cf_9862_a5d98d48b1fe o )  ) ) ( type_0e537306_cb74_41ac_82fd_cb64d09996e1_Class24 ( obj_d4985bae_213f_46cf_9862_a5d98d48b1fe o )  ) ) ( type_0e537306_cb74_41ac_82fd_cb64d09996e1_Class39 ( obj_d4985bae_213f_46cf_9862_a5d98d48b1fe o )  ) )):named c28))
(assert (! (exists ((o Int)) (and (and ( type_0e537306_cb74_41ac_82fd_cb64d09996e1_Class35 ( obj_d4985bae_213f_46cf_9862_a5d98d48b1fe o )  )  ( type_0e537306_cb74_41ac_82fd_cb64d09996e1_Class39 ( obj_d4985bae_213f_46cf_9862_a5d98d48b1fe o )  ) ) ( type_0e537306_cb74_41ac_82fd_cb64d09996e1_Class30 ( obj_d4985bae_213f_46cf_9862_a5d98d48b1fe o )  ) )):named c29))
(assert (! (exists ((o Int)) ( type_0e537306_cb74_41ac_82fd_cb64d09996e1_Class36 ( obj_d4985bae_213f_46cf_9862_a5d98d48b1fe o )  ) ):named c30))
(assert (! (exists ((o Int)) ( type_0e537306_cb74_41ac_82fd_cb64d09996e1_Class37 ( obj_d4985bae_213f_46cf_9862_a5d98d48b1fe o )  ) ):named c31))
(assert (! (exists ((o Int)) ( type_0e537306_cb74_41ac_82fd_cb64d09996e1_Class38 ( obj_d4985bae_213f_46cf_9862_a5d98d48b1fe o )  ) ):named c32))
(assert (! (exists ((o Int)) ( type_0e537306_cb74_41ac_82fd_cb64d09996e1_Class39 ( obj_d4985bae_213f_46cf_9862_a5d98d48b1fe o )  ) ):named c33))
(assert (! (exists ((o Int)) ( type_0e537306_cb74_41ac_82fd_cb64d09996e1_Class4 ( obj_d4985bae_213f_46cf_9862_a5d98d48b1fe o )  ) ):named c34))
(assert (! (exists ((o Int)) (and (and (and (and (and (and (and (and (and ( type_0e537306_cb74_41ac_82fd_cb64d09996e1_Class40 ( obj_d4985bae_213f_46cf_9862_a5d98d48b1fe o )  )  ( type_0e537306_cb74_41ac_82fd_cb64d09996e1_Class45 ( obj_d4985bae_213f_46cf_9862_a5d98d48b1fe o )  ) ) ( type_0e537306_cb74_41ac_82fd_cb64d09996e1_Class12 ( obj_d4985bae_213f_46cf_9862_a5d98d48b1fe o )  ) ) ( type_0e537306_cb74_41ac_82fd_cb64d09996e1_Class55 ( obj_d4985bae_213f_46cf_9862_a5d98d48b1fe o )  ) ) ( type_0e537306_cb74_41ac_82fd_cb64d09996e1_Class33 ( obj_d4985bae_213f_46cf_9862_a5d98d48b1fe o )  ) ) ( type_0e537306_cb74_41ac_82fd_cb64d09996e1_Class22 ( obj_d4985bae_213f_46cf_9862_a5d98d48b1fe o )  ) ) ( type_0e537306_cb74_41ac_82fd_cb64d09996e1_Class29 ( obj_d4985bae_213f_46cf_9862_a5d98d48b1fe o )  ) ) ( type_0e537306_cb74_41ac_82fd_cb64d09996e1_Class39 ( obj_d4985bae_213f_46cf_9862_a5d98d48b1fe o )  ) ) ( type_0e537306_cb74_41ac_82fd_cb64d09996e1_Class50 ( obj_d4985bae_213f_46cf_9862_a5d98d48b1fe o )  ) ) ( type_0e537306_cb74_41ac_82fd_cb64d09996e1_Class41 ( obj_d4985bae_213f_46cf_9862_a5d98d48b1fe o )  ) )):named c35))
(assert (! (exists ((o Int)) (and (and (and (and (and ( type_0e537306_cb74_41ac_82fd_cb64d09996e1_Class41 ( obj_d4985bae_213f_46cf_9862_a5d98d48b1fe o )  )  ( type_0e537306_cb74_41ac_82fd_cb64d09996e1_Class45 ( obj_d4985bae_213f_46cf_9862_a5d98d48b1fe o )  ) ) ( type_0e537306_cb74_41ac_82fd_cb64d09996e1_Class12 ( obj_d4985bae_213f_46cf_9862_a5d98d48b1fe o )  ) ) ( type_0e537306_cb74_41ac_82fd_cb64d09996e1_Class33 ( obj_d4985bae_213f_46cf_9862_a5d98d48b1fe o )  ) ) ( type_0e537306_cb74_41ac_82fd_cb64d09996e1_Class22 ( obj_d4985bae_213f_46cf_9862_a5d98d48b1fe o )  ) ) ( type_0e537306_cb74_41ac_82fd_cb64d09996e1_Class39 ( obj_d4985bae_213f_46cf_9862_a5d98d48b1fe o )  ) )):named c36))
(assert (! (exists ((o Int)) (and ( type_0e537306_cb74_41ac_82fd_cb64d09996e1_Class42 ( obj_d4985bae_213f_46cf_9862_a5d98d48b1fe o )  )  ( type_0e537306_cb74_41ac_82fd_cb64d09996e1_Class39 ( obj_d4985bae_213f_46cf_9862_a5d98d48b1fe o )  ) )):named c37))
(assert (! (exists ((o Int)) ( type_0e537306_cb74_41ac_82fd_cb64d09996e1_Class43 ( obj_d4985bae_213f_46cf_9862_a5d98d48b1fe o )  ) ):named c38))
(assert (! (exists ((o Int)) (and (and (and (and (and (and (and ( type_0e537306_cb74_41ac_82fd_cb64d09996e1_Class44 ( obj_d4985bae_213f_46cf_9862_a5d98d48b1fe o )  )  ( type_0e537306_cb74_41ac_82fd_cb64d09996e1_Class45 ( obj_d4985bae_213f_46cf_9862_a5d98d48b1fe o )  ) ) ( type_0e537306_cb74_41ac_82fd_cb64d09996e1_Class12 ( obj_d4985bae_213f_46cf_9862_a5d98d48b1fe o )  ) ) ( type_0e537306_cb74_41ac_82fd_cb64d09996e1_Class33 ( obj_d4985bae_213f_46cf_9862_a5d98d48b1fe o )  ) ) ( type_0e537306_cb74_41ac_82fd_cb64d09996e1_Class22 ( obj_d4985bae_213f_46cf_9862_a5d98d48b1fe o )  ) ) ( type_0e537306_cb74_41ac_82fd_cb64d09996e1_Class29 ( obj_d4985bae_213f_46cf_9862_a5d98d48b1fe o )  ) ) ( type_0e537306_cb74_41ac_82fd_cb64d09996e1_Class39 ( obj_d4985bae_213f_46cf_9862_a5d98d48b1fe o )  ) ) ( type_0e537306_cb74_41ac_82fd_cb64d09996e1_Class41 ( obj_d4985bae_213f_46cf_9862_a5d98d48b1fe o )  ) )):named c39))
(assert (! (exists ((o Int)) (and (and (and (and ( type_0e537306_cb74_41ac_82fd_cb64d09996e1_Class45 ( obj_d4985bae_213f_46cf_9862_a5d98d48b1fe o )  )  ( type_0e537306_cb74_41ac_82fd_cb64d09996e1_Class12 ( obj_d4985bae_213f_46cf_9862_a5d98d48b1fe o )  ) ) ( type_0e537306_cb74_41ac_82fd_cb64d09996e1_Class33 ( obj_d4985bae_213f_46cf_9862_a5d98d48b1fe o )  ) ) ( type_0e537306_cb74_41ac_82fd_cb64d09996e1_Class22 ( obj_d4985bae_213f_46cf_9862_a5d98d48b1fe o )  ) ) ( type_0e537306_cb74_41ac_82fd_cb64d09996e1_Class39 ( obj_d4985bae_213f_46cf_9862_a5d98d48b1fe o )  ) )):named c40))
(assert (! (exists ((o Int)) (and (and ( type_0e537306_cb74_41ac_82fd_cb64d09996e1_Class46 ( obj_d4985bae_213f_46cf_9862_a5d98d48b1fe o )  )  ( type_0e537306_cb74_41ac_82fd_cb64d09996e1_Class39 ( obj_d4985bae_213f_46cf_9862_a5d98d48b1fe o )  ) ) ( type_0e537306_cb74_41ac_82fd_cb64d09996e1_Class5 ( obj_d4985bae_213f_46cf_9862_a5d98d48b1fe o )  ) )):named c41))
(assert (! (exists ((o Int)) ( type_0e537306_cb74_41ac_82fd_cb64d09996e1_Class47 ( obj_d4985bae_213f_46cf_9862_a5d98d48b1fe o )  ) ):named c42))
(assert (! (exists ((o Int)) (and (and (and (and (and (and (and (and (and ( type_0e537306_cb74_41ac_82fd_cb64d09996e1_Class48 ( obj_d4985bae_213f_46cf_9862_a5d98d48b1fe o )  )  ( type_0e537306_cb74_41ac_82fd_cb64d09996e1_Class45 ( obj_d4985bae_213f_46cf_9862_a5d98d48b1fe o )  ) ) ( type_0e537306_cb74_41ac_82fd_cb64d09996e1_Class12 ( obj_d4985bae_213f_46cf_9862_a5d98d48b1fe o )  ) ) ( type_0e537306_cb74_41ac_82fd_cb64d09996e1_Class55 ( obj_d4985bae_213f_46cf_9862_a5d98d48b1fe o )  ) ) ( type_0e537306_cb74_41ac_82fd_cb64d09996e1_Class33 ( obj_d4985bae_213f_46cf_9862_a5d98d48b1fe o )  ) ) ( type_0e537306_cb74_41ac_82fd_cb64d09996e1_Class22 ( obj_d4985bae_213f_46cf_9862_a5d98d48b1fe o )  ) ) ( type_0e537306_cb74_41ac_82fd_cb64d09996e1_Class29 ( obj_d4985bae_213f_46cf_9862_a5d98d48b1fe o )  ) ) ( type_0e537306_cb74_41ac_82fd_cb64d09996e1_Class39 ( obj_d4985bae_213f_46cf_9862_a5d98d48b1fe o )  ) ) ( type_0e537306_cb74_41ac_82fd_cb64d09996e1_Class50 ( obj_d4985bae_213f_46cf_9862_a5d98d48b1fe o )  ) ) ( type_0e537306_cb74_41ac_82fd_cb64d09996e1_Class41 ( obj_d4985bae_213f_46cf_9862_a5d98d48b1fe o )  ) )):named c43))
(assert (! (exists ((o Int)) (and (and (and (and (and (and (and (and (and ( type_0e537306_cb74_41ac_82fd_cb64d09996e1_Class49 ( obj_d4985bae_213f_46cf_9862_a5d98d48b1fe o )  )  ( type_0e537306_cb74_41ac_82fd_cb64d09996e1_Class45 ( obj_d4985bae_213f_46cf_9862_a5d98d48b1fe o )  ) ) ( type_0e537306_cb74_41ac_82fd_cb64d09996e1_Class12 ( obj_d4985bae_213f_46cf_9862_a5d98d48b1fe o )  ) ) ( type_0e537306_cb74_41ac_82fd_cb64d09996e1_Class55 ( obj_d4985bae_213f_46cf_9862_a5d98d48b1fe o )  ) ) ( type_0e537306_cb74_41ac_82fd_cb64d09996e1_Class33 ( obj_d4985bae_213f_46cf_9862_a5d98d48b1fe o )  ) ) ( type_0e537306_cb74_41ac_82fd_cb64d09996e1_Class22 ( obj_d4985bae_213f_46cf_9862_a5d98d48b1fe o )  ) ) ( type_0e537306_cb74_41ac_82fd_cb64d09996e1_Class29 ( obj_d4985bae_213f_46cf_9862_a5d98d48b1fe o )  ) ) ( type_0e537306_cb74_41ac_82fd_cb64d09996e1_Class39 ( obj_d4985bae_213f_46cf_9862_a5d98d48b1fe o )  ) ) ( type_0e537306_cb74_41ac_82fd_cb64d09996e1_Class50 ( obj_d4985bae_213f_46cf_9862_a5d98d48b1fe o )  ) ) ( type_0e537306_cb74_41ac_82fd_cb64d09996e1_Class41 ( obj_d4985bae_213f_46cf_9862_a5d98d48b1fe o )  ) )):named c44))
(assert (! (exists ((o Int)) (and ( type_0e537306_cb74_41ac_82fd_cb64d09996e1_Class5 ( obj_d4985bae_213f_46cf_9862_a5d98d48b1fe o )  )  ( type_0e537306_cb74_41ac_82fd_cb64d09996e1_Class39 ( obj_d4985bae_213f_46cf_9862_a5d98d48b1fe o )  ) )):named c45))
(assert (! (exists ((o Int)) (and (and (and (and (and (and (and (and ( type_0e537306_cb74_41ac_82fd_cb64d09996e1_Class50 ( obj_d4985bae_213f_46cf_9862_a5d98d48b1fe o )  )  ( type_0e537306_cb74_41ac_82fd_cb64d09996e1_Class45 ( obj_d4985bae_213f_46cf_9862_a5d98d48b1fe o )  ) ) ( type_0e537306_cb74_41ac_82fd_cb64d09996e1_Class12 ( obj_d4985bae_213f_46cf_9862_a5d98d48b1fe o )  ) ) ( type_0e537306_cb74_41ac_82fd_cb64d09996e1_Class55 ( obj_d4985bae_213f_46cf_9862_a5d98d48b1fe o )  ) ) ( type_0e537306_cb74_41ac_82fd_cb64d09996e1_Class33 ( obj_d4985bae_213f_46cf_9862_a5d98d48b1fe o )  ) ) ( type_0e537306_cb74_41ac_82fd_cb64d09996e1_Class22 ( obj_d4985bae_213f_46cf_9862_a5d98d48b1fe o )  ) ) ( type_0e537306_cb74_41ac_82fd_cb64d09996e1_Class29 ( obj_d4985bae_213f_46cf_9862_a5d98d48b1fe o )  ) ) ( type_0e537306_cb74_41ac_82fd_cb64d09996e1_Class39 ( obj_d4985bae_213f_46cf_9862_a5d98d48b1fe o )  ) ) ( type_0e537306_cb74_41ac_82fd_cb64d09996e1_Class41 ( obj_d4985bae_213f_46cf_9862_a5d98d48b1fe o )  ) )):named c46))
(assert (! (exists ((o Int)) (and (and (and (and (and (and ( type_0e537306_cb74_41ac_82fd_cb64d09996e1_Class51 ( obj_d4985bae_213f_46cf_9862_a5d98d48b1fe o )  )  ( type_0e537306_cb74_41ac_82fd_cb64d09996e1_Class45 ( obj_d4985bae_213f_46cf_9862_a5d98d48b1fe o )  ) ) ( type_0e537306_cb74_41ac_82fd_cb64d09996e1_Class12 ( obj_d4985bae_213f_46cf_9862_a5d98d48b1fe o )  ) ) ( type_0e537306_cb74_41ac_82fd_cb64d09996e1_Class33 ( obj_d4985bae_213f_46cf_9862_a5d98d48b1fe o )  ) ) ( type_0e537306_cb74_41ac_82fd_cb64d09996e1_Class22 ( obj_d4985bae_213f_46cf_9862_a5d98d48b1fe o )  ) ) ( type_0e537306_cb74_41ac_82fd_cb64d09996e1_Class16 ( obj_d4985bae_213f_46cf_9862_a5d98d48b1fe o )  ) ) ( type_0e537306_cb74_41ac_82fd_cb64d09996e1_Class39 ( obj_d4985bae_213f_46cf_9862_a5d98d48b1fe o )  ) )):named c47))
(assert (! (exists ((o Int)) (and (and (and (and (and ( type_0e537306_cb74_41ac_82fd_cb64d09996e1_Class52 ( obj_d4985bae_213f_46cf_9862_a5d98d48b1fe o )  )  ( type_0e537306_cb74_41ac_82fd_cb64d09996e1_Class45 ( obj_d4985bae_213f_46cf_9862_a5d98d48b1fe o )  ) ) ( type_0e537306_cb74_41ac_82fd_cb64d09996e1_Class12 ( obj_d4985bae_213f_46cf_9862_a5d98d48b1fe o )  ) ) ( type_0e537306_cb74_41ac_82fd_cb64d09996e1_Class33 ( obj_d4985bae_213f_46cf_9862_a5d98d48b1fe o )  ) ) ( type_0e537306_cb74_41ac_82fd_cb64d09996e1_Class22 ( obj_d4985bae_213f_46cf_9862_a5d98d48b1fe o )  ) ) ( type_0e537306_cb74_41ac_82fd_cb64d09996e1_Class39 ( obj_d4985bae_213f_46cf_9862_a5d98d48b1fe o )  ) )):named c48))
(assert (! (exists ((o Int)) ( type_0e537306_cb74_41ac_82fd_cb64d09996e1_Class53 ( obj_d4985bae_213f_46cf_9862_a5d98d48b1fe o )  ) ):named c49))
(assert (! (exists ((o Int)) ( type_0e537306_cb74_41ac_82fd_cb64d09996e1_Class54 ( obj_d4985bae_213f_46cf_9862_a5d98d48b1fe o )  ) ):named c50))
(assert (! (exists ((o Int)) (and (and (and (and (and (and (and ( type_0e537306_cb74_41ac_82fd_cb64d09996e1_Class55 ( obj_d4985bae_213f_46cf_9862_a5d98d48b1fe o )  )  ( type_0e537306_cb74_41ac_82fd_cb64d09996e1_Class45 ( obj_d4985bae_213f_46cf_9862_a5d98d48b1fe o )  ) ) ( type_0e537306_cb74_41ac_82fd_cb64d09996e1_Class12 ( obj_d4985bae_213f_46cf_9862_a5d98d48b1fe o )  ) ) ( type_0e537306_cb74_41ac_82fd_cb64d09996e1_Class33 ( obj_d4985bae_213f_46cf_9862_a5d98d48b1fe o )  ) ) ( type_0e537306_cb74_41ac_82fd_cb64d09996e1_Class22 ( obj_d4985bae_213f_46cf_9862_a5d98d48b1fe o )  ) ) ( type_0e537306_cb74_41ac_82fd_cb64d09996e1_Class29 ( obj_d4985bae_213f_46cf_9862_a5d98d48b1fe o )  ) ) ( type_0e537306_cb74_41ac_82fd_cb64d09996e1_Class39 ( obj_d4985bae_213f_46cf_9862_a5d98d48b1fe o )  ) ) ( type_0e537306_cb74_41ac_82fd_cb64d09996e1_Class41 ( obj_d4985bae_213f_46cf_9862_a5d98d48b1fe o )  ) )):named c51))
(assert (! (exists ((o Int)) ( type_0e537306_cb74_41ac_82fd_cb64d09996e1_Class6 ( obj_d4985bae_213f_46cf_9862_a5d98d48b1fe o )  ) ):named c52))
(assert (! (exists ((o Int)) (and (and (and (and (and (and (and (and (and ( type_0e537306_cb74_41ac_82fd_cb64d09996e1_Class7 ( obj_d4985bae_213f_46cf_9862_a5d98d48b1fe o )  )  ( type_0e537306_cb74_41ac_82fd_cb64d09996e1_Class45 ( obj_d4985bae_213f_46cf_9862_a5d98d48b1fe o )  ) ) ( type_0e537306_cb74_41ac_82fd_cb64d09996e1_Class12 ( obj_d4985bae_213f_46cf_9862_a5d98d48b1fe o )  ) ) ( type_0e537306_cb74_41ac_82fd_cb64d09996e1_Class55 ( obj_d4985bae_213f_46cf_9862_a5d98d48b1fe o )  ) ) ( type_0e537306_cb74_41ac_82fd_cb64d09996e1_Class33 ( obj_d4985bae_213f_46cf_9862_a5d98d48b1fe o )  ) ) ( type_0e537306_cb74_41ac_82fd_cb64d09996e1_Class22 ( obj_d4985bae_213f_46cf_9862_a5d98d48b1fe o )  ) ) ( type_0e537306_cb74_41ac_82fd_cb64d09996e1_Class29 ( obj_d4985bae_213f_46cf_9862_a5d98d48b1fe o )  ) ) ( type_0e537306_cb74_41ac_82fd_cb64d09996e1_Class39 ( obj_d4985bae_213f_46cf_9862_a5d98d48b1fe o )  ) ) ( type_0e537306_cb74_41ac_82fd_cb64d09996e1_Class50 ( obj_d4985bae_213f_46cf_9862_a5d98d48b1fe o )  ) ) ( type_0e537306_cb74_41ac_82fd_cb64d09996e1_Class41 ( obj_d4985bae_213f_46cf_9862_a5d98d48b1fe o )  ) )):named c53))
(assert (! (exists ((o Int)) (and ( type_0e537306_cb74_41ac_82fd_cb64d09996e1_Class8 ( obj_d4985bae_213f_46cf_9862_a5d98d48b1fe o )  )  ( type_0e537306_cb74_41ac_82fd_cb64d09996e1_Class39 ( obj_d4985bae_213f_46cf_9862_a5d98d48b1fe o )  ) )):named c54))
(assert (! (exists ((o Int)) ( type_0e537306_cb74_41ac_82fd_cb64d09996e1_Class9 ( obj_d4985bae_213f_46cf_9862_a5d98d48b1fe o )  ) ):named c55))

 ;end of formula 